(declare-fun y_1 () Real)
(declare-fun cos_yaw_0 () Real)
(declare-fun sin_yaw_0 () Real)
(declare-fun y_0 () Real)
(declare-fun time () Real)
(declare-fun npc_y_0 () Real)
(declare-fun npc_y_3 () Real)
(declare-fun npc_x_0 () Real)
(declare-fun npc_x_3 () Real)
(declare-fun y () Real)
(declare-fun x () Real)
(declare-fun npc_y_1 () Real)
(declare-fun npc_x_1 () Real)
(declare-fun s () Real)
(declare-fun npc_y_2 () Real)
(declare-fun npc_x_2 () Real)
(declare-fun cos_yaw_1 () Real)
(declare-fun sin_yaw_1 () Real)
(declare-fun x_1 () Real)
(declare-fun x_0 () Real)
(declare-fun region_safe () Bool)
(assert (let ((a!1 (- (* (+ (- (/ 24508416652679443.0 10000000000000000.0)) x_0)
                 cos_yaw_0)
              (* (+ (/ 2128324270248413.0 2000000000000000.0) y_0) sin_yaw_0)))
      (a!3 (+ (* (+ (- (/ 24508416652679443.0 10000000000000000.0)) x_0)
                 sin_yaw_0)
              (* (+ (/ 2128324270248413.0 2000000000000000.0) y_0) cos_yaw_0)))
      (a!9 (and (= s 0.0)
                (= npc_x_0 (/ 14642882537841797.0 50000000000000.0))
                (= npc_y_0 (/ 5739452362060547.0 100000000000000.0))
                (= npc_x_1 (/ 1464290542602539.0 5000000000000.0))
                (= npc_y_1 (/ 3702200698852539.0 100000000000000.0))
                (= npc_x_2 (/ 78038215637207.0 2500000000000.0))
                (= npc_y_2 (/ 1851000213623047.0 50000000000000.0))
                (= npc_x_3 (/ 1560741424560547.0 50000000000000.0))
                (= npc_y_3 (/ 7174065113067627.0 125000000000000.0))))
      (a!10 (=> (and (>= (+ time 0.0) (/ 217.0 5.0))
                     (<= (+ time 0.0) (/ 267.0 5.0)))
                (and (>= s 2.0) (<= s 15.0))))
      (a!11 (+ (/ 14642882537841797.0 50000000000000.0)
               (* (* (- (/ 9999862909317017.0 10000000000000000.0)) s)
                  (- (+ time 0.0) (/ 217.0 5.0)))))
      (a!12 (+ (/ 5739452362060547.0 100000000000000.0)
               (* (* (- (/ 1522471138741821.0 1250000000000000000.0)) s)
                  (- (+ time 0.0) (/ 217.0 5.0)))))
      (a!13 (+ (/ 1464290542602539.0 5000000000000.0)
               (* (* (- (/ 9999862909317017.0 10000000000000000.0)) s)
                  (- (+ time 0.0) (/ 217.0 5.0)))))
      (a!14 (+ (/ 3702200698852539.0 100000000000000.0)
               (* (* (- (/ 1522471138741821.0 1250000000000000000.0)) s)
                  (- (+ time 0.0) (/ 217.0 5.0)))))
      (a!15 (+ (/ 78038215637207.0 2500000000000.0)
               (* (* (- (/ 9999862909317017.0 10000000000000000.0)) s)
                  (- (+ time 0.0) (/ 217.0 5.0)))))
      (a!16 (+ (/ 1851000213623047.0 50000000000000.0)
               (* (* (- (/ 1522471138741821.0 1250000000000000000.0)) s)
                  (- (+ time 0.0) (/ 217.0 5.0)))))
      (a!17 (+ (/ 1560741424560547.0 50000000000000.0)
               (* (* (- (/ 9999862909317017.0 10000000000000000.0)) s)
                  (- (+ time 0.0) (/ 217.0 5.0)))))
      (a!18 (+ (/ 7174065113067627.0 125000000000000.0)
               (* (* (- (/ 1522471138741821.0 1250000000000000000.0)) s)
                  (- (+ time 0.0) (/ 217.0 5.0)))))
      (a!19 (+ (* (- x npc_x_0) (- npc_x_1 npc_x_0))
               (* (- y npc_y_0) (- npc_y_1 npc_y_0))))
      (a!21 (+ (* (- x npc_x_0) (- npc_x_3 npc_x_0))
               (* (- y npc_y_0) (- npc_y_3 npc_y_0))))
      (a!24 (- (* (+ (- (/ 24508416652679443.0 10000000000000000.0)) x_1)
                  cos_yaw_1)
               (* (+ (/ 2128324270248413.0 2000000000000000.0) y_1) sin_yaw_1)))
      (a!26 (+ (* (+ (- (/ 24508416652679443.0 10000000000000000.0)) x_1)
                  sin_yaw_1)
               (* (+ (/ 2128324270248413.0 2000000000000000.0) y_1) cos_yaw_1)))
      (a!32 (=> (and (>= (+ time (/ 1.0 2.0)) (/ 217.0 5.0))
                     (<= (+ time (/ 1.0 2.0)) (/ 267.0 5.0)))
                (and (>= s 2.0) (<= s 15.0))))
      (a!33 (+ (/ 14642882537841797.0 50000000000000.0)
               (* (* (- (/ 9999862909317017.0 10000000000000000.0)) s)
                  (- (+ time (/ 1.0 2.0)) (/ 217.0 5.0)))))
      (a!34 (+ (/ 5739452362060547.0 100000000000000.0)
               (* (* (- (/ 1522471138741821.0 1250000000000000000.0)) s)
                  (- (+ time (/ 1.0 2.0)) (/ 217.0 5.0)))))
      (a!35 (+ (/ 1464290542602539.0 5000000000000.0)
               (* (* (- (/ 9999862909317017.0 10000000000000000.0)) s)
                  (- (+ time (/ 1.0 2.0)) (/ 217.0 5.0)))))
      (a!36 (+ (/ 3702200698852539.0 100000000000000.0)
               (* (* (- (/ 1522471138741821.0 1250000000000000000.0)) s)
                  (- (+ time (/ 1.0 2.0)) (/ 217.0 5.0)))))
      (a!37 (+ (/ 78038215637207.0 2500000000000.0)
               (* (* (- (/ 9999862909317017.0 10000000000000000.0)) s)
                  (- (+ time (/ 1.0 2.0)) (/ 217.0 5.0)))))
      (a!38 (+ (/ 1851000213623047.0 50000000000000.0)
               (* (* (- (/ 1522471138741821.0 1250000000000000000.0)) s)
                  (- (+ time (/ 1.0 2.0)) (/ 217.0 5.0)))))
      (a!39 (+ (/ 1560741424560547.0 50000000000000.0)
               (* (* (- (/ 9999862909317017.0 10000000000000000.0)) s)
                  (- (+ time (/ 1.0 2.0)) (/ 217.0 5.0)))))
      (a!40 (+ (/ 7174065113067627.0 125000000000000.0)
               (* (* (- (/ 1522471138741821.0 1250000000000000000.0)) s)
                  (- (+ time (/ 1.0 2.0)) (/ 217.0 5.0))))))
(let ((a!2 (- (- (* (+ (- (/ 24508416652679443.0 10000000000000000.0)) x_0)
                    cos_yaw_0)
                 (* (+ (- (/ 2128324270248413.0 2000000000000000.0)) y_0)
                    sin_yaw_0))
              a!1))
      (a!4 (- (+ (* (+ (- (/ 24508416652679443.0 10000000000000000.0)) x_0)
                    sin_yaw_0)
                 (* (+ (- (/ 2128324270248413.0 2000000000000000.0)) y_0)
                    cos_yaw_0))
              a!3))
      (a!6 (- (- (* (+ (/ 24508416652679443.0 10000000000000000.0) x_0)
                    cos_yaw_0)
                 (* (+ (/ 2128324270248413.0 2000000000000000.0) y_0) sin_yaw_0))
              a!1))
      (a!7 (- (+ (* (+ (/ 24508416652679443.0 10000000000000000.0) x_0)
                    sin_yaw_0)
                 (* (+ (/ 2128324270248413.0 2000000000000000.0) y_0) cos_yaw_0))
              a!3))
      (a!20 (<= a!19
                (+ (^ (- npc_x_1 npc_x_0) 2.0) (^ (- npc_y_1 npc_y_0) 2.0))))
      (a!22 (<= a!21
                (+ (^ (- npc_x_3 npc_x_0) 2.0) (^ (- npc_y_3 npc_y_0) 2.0))))
      (a!25 (- (- (* (+ (- (/ 24508416652679443.0 10000000000000000.0)) x_1)
                     cos_yaw_1)
                  (* (+ (- (/ 2128324270248413.0 2000000000000000.0)) y_1)
                     sin_yaw_1))
               a!24))
      (a!27 (- (+ (* (+ (- (/ 24508416652679443.0 10000000000000000.0)) x_1)
                     sin_yaw_1)
                  (* (+ (- (/ 2128324270248413.0 2000000000000000.0)) y_1)
                     cos_yaw_1))
               a!26))
      (a!29 (- (- (* (+ (/ 24508416652679443.0 10000000000000000.0) x_1)
                     cos_yaw_1)
                  (* (+ (/ 2128324270248413.0 2000000000000000.0) y_1)
                     sin_yaw_1))
               a!24))
      (a!30 (- (+ (* (+ (/ 24508416652679443.0 10000000000000000.0) x_1)
                     sin_yaw_1)
                  (* (+ (/ 2128324270248413.0 2000000000000000.0) y_1)
                     cos_yaw_1))
               a!26)))
(let ((a!5 (+ (* (- x a!1) a!2) (* (- y a!3) a!4)))
      (a!8 (+ (* (- x a!1) a!6) (* (- y a!3) a!7)))
      (a!28 (+ (* (- x a!24) a!25) (* (- y a!26) a!27)))
      (a!31 (+ (* (- x a!24) a!29) (* (- y a!26) a!30))))
(let ((a!23 (and (>= a!5 0.0)
                 (<= a!5 (+ (^ a!2 2.0) (^ a!4 2.0)))
                 (>= a!8 0.0)
                 (<= a!8 (+ (^ a!6 2.0) (^ a!7 2.0)))
                 (=> (< (+ time 0.0) (/ 217.0 5.0)) a!9)
                 a!10
                 (=> (> (+ time 0.0) (/ 267.0 5.0)) (= s 0.0))
                 (=> (>= (+ time 0.0) (/ 217.0 5.0))
                     (and (= npc_x_0 a!11)
                          (= npc_y_0 a!12)
                          (= npc_x_1 a!13)
                          (= npc_y_1 a!14)
                          (= npc_x_2 a!15)
                          (= npc_y_2 a!16)
                          (= npc_x_3 a!17)
                          (= npc_y_3 a!18)))
                 (and (>= a!19 0.0) a!20 (>= a!21 0.0) a!22)))
      (a!41 (and (>= a!28 0.0)
                 (<= a!28 (+ (^ a!25 2.0) (^ a!27 2.0)))
                 (>= a!31 0.0)
                 (<= a!31 (+ (^ a!29 2.0) (^ a!30 2.0)))
                 (=> (< (+ time (/ 1.0 2.0)) (/ 217.0 5.0)) a!9)
                 a!32
                 (=> (> (+ time (/ 1.0 2.0)) (/ 267.0 5.0)) (= s 0.0))
                 (=> (>= (+ time (/ 1.0 2.0)) (/ 217.0 5.0))
                     (and (= npc_x_0 a!33)
                          (= npc_y_0 a!34)
                          (= npc_x_1 a!35)
                          (= npc_y_1 a!36)
                          (= npc_x_2 a!37)
                          (= npc_y_2 a!38)
                          (= npc_x_3 a!39)
                          (= npc_y_3 a!40)))
                 (and (>= a!19 0.0) a!20 (>= a!21 0.0) a!22))))
(let ((a!42 (and (= (+ (^ cos_yaw_0 2.0) (^ sin_yaw_0 2.0)) 1.0)
                 (= (+ (^ cos_yaw_1 2.0) (^ sin_yaw_1 2.0)) 1.0)
                 (or a!23 a!41)
                 (>= time (/ 217.0 5.0))
                 (<= time (/ 267.0 5.0))
                 (< (/ 2056739546336607.0 36028797018963968.0)
                    (+ (* 1.0 y_0)
                       (* 1.0 sin_yaw_0)
                       (* (- 1.0) cos_yaw_0)
                       (* (- 1.0) y_1))))))
  (=> region_safe a!42)))))))
(check-sat)
